GLPSOL: GLPK LP/MIP Solver, v4.55
Parameter(s) specified in the command line:
 -m tmp.mod
Reading model section from tmp.mod...
Reading data section from tmp.mod...
136 lines were read
Generating obj...
Generating kirhoff...
Generating init_charge...
Generating batt_size...
Model has been successfully generated
GLPK Simplex Optimizer, v4.55
84 rows, 133 columns, 262 non-zeros
Preprocessing...
61 rows, 112 columns, 227 non-zeros
Scaling...
 A: min|aij| =  1.000e+00  max|aij| =  1.000e+00  ratio =  1.000e+00
Problem data seem to be well scaled
Constructing initial basis...
Size of triangular part is 58
      0: obj =   0.000000000e+00  infeas =  1.050e+02 (3)
*    26: obj =   1.500000000e+01  infeas =  0.000e+00 (3)
*    28: obj =   1.400000000e+01  infeas =  0.000e+00 (3)
OPTIMAL LP SOLUTION FOUND
Time used:   0.0 secs
Memory used: 0.3 Mb (364667 bytes)
#OUTPUT:
14
0 -16 -16 0 -16 -8 0 0 -16 0 0 0 0 0 0 -7 0 0 
0 -12 -8 0 -7 -11 0 -1 0 0 0 0 0 0 0 4 0 0 
-3 -18 -18 0 -10 -1 0 1 0 -17 0 0 0 0 -3 -1 0 0 
#OUTPUT END
Model has been successfully processed
